WARNING: for repeatability, setting FPU to use double precision
============================[ Problem Statistics ]=============================
|                                                                             |
|  Number of variables:           100                                         |
|  Number of clauses:             449                                         |
|  Parse time:                   0.00 s                                       |
|  Eliminated clauses:           0.00 Mb                                      |
|  Simplification time:          0.00 s                                       |
|                                                                             |
============================[ Search Statistics ]==============================
| Conflicts |          ORIGINAL         |          LEARNT          | Progress |
|           |    Vars  Clauses Literals |    Limit  Clauses Lit/Cl |          |
===============================================================================
|       100 |      98      446     1348 |      163      100      8 |  0.010 % |
===============================================================================
restarts              : 2
conflicts             : 124            (46669 /sec)
decisions             : 168            (0.00 % random) (63229 /sec)
propagations          : 3140           (1181784 /sec)
conflict literals     : 1013           (13.57 % deleted)
Memory used           : 13.00 MB
CPU time              : 0.002657 s

SATISFIABLE
